p tw 89 208
0 1
0 2
0 3
0 55
1 2
1 4
1 58
2 69
2 86
3 4
3 55
4 58
5 6
5 7
5 23
5 47
6 7
6 45
7 22
7 50
7 55
7 58
8 9
8 10
8 67
8 68
9 10
9 62
9 63
9 64
10 37
10 84
11 12
11 65
11 81
12 32
12 33
12 34
12 35
13 14
13 15
13 62
13 67
13 83
14 15
14 63
14 82
15 78
15 80
16 17
16 18
16 60
17 18
17 65
17 66
18 20
18 44
18 73
19 20
19 21
19 43
19 72
20 21
20 44
20 73
21 45
21 50
22 23
22 24
22 50
22 55
22 58
23 24
23 47
24 42
24 48
24 78
24 79
25 26
25 27
25 52
25 53
25 54
26 27
26 36
26 37
26 38
26 39
27 49
28 29
28 30
28 31
28 32
28 59
28 74
28 81
29 30
29 31
29 75
30 31
30 33
30 76
30 77
31 35
31 85
32 33
32 34
32 35
32 59
32 74
32 81
33 34
33 35
33 76
33 77
34 35
34 56
34 57
35 85
36 37
36 38
36 39
36 49
36 53
36 61
37 38
37 39
37 84
38 39
38 54
38 69
38 70
38 71
39 86
40 41
40 42
40 57
40 88
41 42
41 87
42 48
42 78
42 79
43 44
43 72
44 73
45 50
46 47
46 48
46 80
47 48
48 78
48 79
49 53
49 61
50 55
50 58
51 52
51 61
51 71
52 53
52 54
53 54
53 61
54 69
54 70
54 71
55 58
56 57
56 59
57 88
59 74
59 81
60 66
60 72
60 73
61 71
62 63
62 64
62 67
62 83
63 64
63 82
64 68
65 66
65 81
66 72
66 73
67 68
67 83
69 70
69 71
69 86
70 71
70 84
72 73
74 75
74 76
74 81
75 76
76 77
77 85
78 79
78 80
79 87
79 88
82 83
87 88
